objective value:                     1.74046909240342
x(0,3,0)                                            1 	(obj:0)
x(1,6,1)                                            1 	(obj:0)
x(2,7,0)                                            1 	(obj:0)
x(2,9,2)                                            1 	(obj:0)
x(3,2,0)                                            1 	(obj:0)
x(4,11,1)                                           1 	(obj:0)
x(6,4,1)                                            1 	(obj:0)
x(6,10,0)                                           1 	(obj:0)
x(6,12,2)                                           1 	(obj:0)
x(7,8,0)                                            1 	(obj:0)
x(8,6,0)                                            1 	(obj:0)
x(9,6,2)                                            1 	(obj:0)
x(10,0,0)                                           1 	(obj:0)
x(11,1,1)                                           1 	(obj:0)
x(12,2,2)                                           1 	(obj:0)
xc(1,11)                                            1 	(obj:0)
xc(6,2)                                             1 	(obj:0)
u(0,1)                               1.74046909240342 	(obj:0)
u(0,2)                               1.74046909240342 	(obj:0)
u(1,0)                               1.74046909240342 	(obj:0)
u(2,0)                              0.679833369120956 	(obj:0)
u(3,0)                              0.348706604883557 	(obj:0)
u(3,2)                               1.74046909240342 	(obj:0)
u(4,1)                               1.34005362245227 	(obj:0)
u(5,0)                               1.74046909240342 	(obj:0)
u(5,1)                               1.74046909240342 	(obj:0)
u(6,0)                               1.40698148877512 	(obj:0)
u(6,1)                               0.73191555120834 	(obj:0)
u(6,2)                               1.48481870211952 	(obj:0)
u(7,0)                              0.858219798921057 	(obj:0)
u(7,1)                               1.74046909240342 	(obj:0)
u(8,0)                               1.33352074802892 	(obj:0)
u(8,1)                               1.74046909240342 	(obj:0)
u(9,0)                               1.74046909240342 	(obj:0)
u(9,2)                              0.864869185112831 	(obj:0)
u(10,0)                              1.74046909240342 	(obj:0)
u(10,1)                             0.475055004584008 	(obj:0)
u(10,2)                              0.29154080125979 	(obj:0)
u(11,0)                             0.475055004584008 	(obj:0)
u(11,1)                              1.74046909240342 	(obj:0)
u(11,2)                             0.475055004584008 	(obj:0)
u(12,0)                               0.3000142906685 	(obj:0)
u(12,1)                             0.376435459409631 	(obj:0)
u(12,2)                              1.74046909240342 	(obj:0)
u(13,0)                            0.0307977644201998 	(obj:0)
u(13,1)                             0.475055004584008 	(obj:0)
u(13,2)                             0.320884678291311 	(obj:0)
u(14,0)                             0.475055004584008 	(obj:0)
u(14,1)                            0.0988677886308995 	(obj:0)
u(14,2)                             0.475055004584008 	(obj:0)
u(15,0)                             0.475055004584008 	(obj:0)
u(15,1)                               0.1586646438363 	(obj:0)
u(15,2)                             0.475055004584008 	(obj:0)
u(16,0)                             0.320811399753801 	(obj:0)
u(16,1)                              0.37061056895193 	(obj:0)
u(16,2)                             0.255552448314599 	(obj:0)
u(17,0)                             0.383935266707301 	(obj:0)
u(17,1)                             0.475055004584008 	(obj:0)
u(17,2)                               0.1782884878308 	(obj:0)
u(18,0)                             0.287551182740001 	(obj:0)
u(18,1)                               0.4435885673998 	(obj:0)
u(18,2)                              0.29691451930776 	(obj:0)
u(19,0)                             0.475055004584008 	(obj:0)
u(19,1)                             0.475055004584008 	(obj:0)
u(19,2)                             0.475055004584008 	(obj:0)
f(0,3,0)                                            1 	(obj:0)
f(0,3,4)                                            1 	(obj:0)
f(1,6,1)                                            1 	(obj:0)
f(1,6,4)                                            1 	(obj:0)
f(2,9,0)                                            1 	(obj:0)
f(2,9,1)                                            1 	(obj:0)
f(2,9,2)                                            1 	(obj:0)
f(2,9,3)                                            1 	(obj:0)
f(2,9,4)                                            1 	(obj:0)
f(3,2,0)                                            1 	(obj:0)
f(3,2,3)                                            1 	(obj:0)
f(3,2,4)                                            1 	(obj:0)
f(4,11,4)                                           1 	(obj:0)
f(6,2,1)                                            1 	(obj:0)
f(6,10,4)                                           1 	(obj:0)
f(10,0,4)                                           1 	(obj:0)
f(11,1,4)                                           1 	(obj:0)
z_r(0,)                              1.74046909240342 	(obj:0)
z_r(1,)                              1.74046909240342 	(obj:0)
z_r(2,)                              1.74046909240342 	(obj:0)
z                                    1.74046909240342 	(obj:1)
